40
    81    57    60    48    52    13    56    70    89    43    72    73    71    86    88     8     3    32    61    32    19    27    28     1    81    66     1    78    80     2    73    27    34    36    13    16    90    27    70    16
    10     3     2     4    10     9    10    10     2     9     2    10     7     7     8    10    10     8     1     9     8     9     6     3     5     8     4     2     5     1     7     5     7     9     3     5     2     2     2     2
     0   350   627     0   383   122   936   804     0   875   357   252     0     0     0     0   111     0   935     0   871     0     0     0     0     0     0   131   282     0     0   416   848     0     0   542   247     0   376     0
